M = 10;
N = 15;
E = 182;
l = [185, 190, 200, 180, 200, 190, 200, 180, 195, 190];
p = [22, 17, 10, 8, 14, 12, 17, 19, 25, 25, 6, 21, 6];
from = [14, 14, 14, 14, 14, 14, 14, 14, 14, 14, 14, 14, 14, 1, 1, 1, 1, 1, 1, 1, 1, 1, 1, 1, 1, 1, 2, 2, 2, 2, 2, 2, 2, 2, 2, 2, 2, 2, 2, 3, 3, 3, 3, 3, 3, 3, 3, 3, 3, 3, 3, 3, 4, 4, 4, 4, 4, 4, 4, 4, 4, 4, 4, 4, 4, 5, 5, 5, 5, 5, 5, 5, 5, 5, 5, 5, 5, 5, 6, 6, 6, 6, 6, 6, 6, 6, 6, 6, 6, 6, 6, 7, 7, 7, 7, 7, 7, 7, 7, 7, 7, 7, 7, 7, 8, 8, 8, 8, 8, 8, 8, 8, 8, 8, 8, 8, 8, 9, 9, 9, 9, 9, 9, 9, 9, 9, 9, 9, 9, 9, 10, 10, 10, 10, 10, 10, 10, 10, 10, 10, 10, 10, 10, 11, 11, 11, 11, 11, 11, 11, 11, 11, 11, 11, 11, 11, 12, 12, 12, 12, 12, 12, 12, 12, 12, 12, 12, 12, 12, 13, 13, 13, 13, 13, 13, 13, 13, 13, 13, 13, 13, 13];
to = [1, 2, 3, 4, 5, 6, 7, 8, 9, 10, 11, 12, 13, 2, 3, 4, 5, 6, 7, 8, 9, 10, 11, 12, 13, 15, 1, 3, 4, 5, 6, 7, 8, 9, 10, 11, 12, 13, 15, 1, 2, 4, 5, 6, 7, 8, 9, 10, 11, 12, 13, 15, 1, 2, 3, 5, 6, 7, 8, 9, 10, 11, 12, 13, 15, 1, 2, 3, 4, 6, 7, 8, 9, 10, 11, 12, 13, 15, 1, 2, 3, 4, 5, 7, 8, 9, 10, 11, 12, 13, 15, 1, 2, 3, 4, 5, 6, 8, 9, 10, 11, 12, 13, 15, 1, 2, 3, 4, 5, 6, 7, 9, 10, 11, 12, 13, 15, 1, 2, 3, 4, 5, 6, 7, 8, 10, 11, 12, 13, 15, 1, 2, 3, 4, 5, 6, 7, 8, 9, 11, 12, 13, 15, 1, 2, 3, 4, 5, 6, 7, 8, 9, 10, 12, 13, 15, 1, 2, 3, 4, 5, 6, 7, 8, 9, 10, 11, 13, 15, 1, 2, 3, 4, 5, 6, 7, 8, 9, 10, 11, 12, 15];
w = [57, 52, 33, 71, 27, 103, 60, 108, 114, 40, 49, 122, 99, 21, 86, 14, 84, 72, 24, 54, 83, 70, 8, 91, 42, 57, 21, 71, 35, 70, 51, 16, 75, 62, 91, 29, 70, 57, 52, 86, 71, 100, 39, 70, 87, 137, 81, 73, 78, 103, 128, 33, 14, 35, 100, 98, 86, 38, 49, 97, 56, 22, 105, 29, 71, 84, 70, 39, 98, 109, 86, 135, 120, 57, 76, 129, 126, 27, 63, 51, 70, 77, 109, 49, 117, 11, 133, 71, 64, 90, 103, 24, 16, 87, 38, 86, 49, 78, 60, 94, 32, 67, 41, 60, 63, 84, 137, 49, 135, 135, 87, 146, 79, 59, 154, 65, 108, 74, 62, 81, 88, 120, 11, 60, 128, 144, 82, 68, 94, 114, 70, 91, 73, 56, 57, 142, 94, 79, 153, 63, 161, 72, 40, 8, 29, 78, 22, 76, 80, 32, 59, 91, 63, 99, 50, 49, 91, 70, 133, 105, 129, 64, 67, 145, 68, 161, 99, 91, 122, 42, 57, 128, 29, 126, 90, 41, 65, 94, 72, 50, 91, 99];
